NAME: GRASP_41_9
TYPE: TSP
COMMENT: line_41_9
DIMENSION: 41
EDGE_WEIGHT_TYPE: EUC_2D
NODE_COORD_SECTION
1 3083 2545
2 1528 2695
3 2012 54
4 4704 1639
5 2386 4582
6 2538 867
7 581 3767
8 2872 2111
9 3020 2195
10 1659 899
11 4620 311
12 2935 4834
13 2836 2976
14 3686 1266
15 1999 1734
16 3825 2407
17 3997 4302
18 2157 1397
19 4603 1207
20 3327 779
21 4901 4227
22 1307 1382
23 1723 4193
24 3298 4238
25 151 648
26 263 495
27 3497 2828
28 4674 2265
29 4456 3365
30 2974 2582
31 2706 1546
32 1215 4817
33 4689 606
34 3343 888
35 1418 3609
36 433 345
37 278 1659
38 3413 3499
39 4995 2689
40 4849 1584
41 4147 2981
